param sigma
: 1   2 :=
1 0.00001 0.99999
2 0.10000 0.90000
3 0.20000 0.80000
4 0.30000 0.70000
5 0.40000 0.60000
6 0.50000 0.50000
7 0.90000 0.10000
8 0.80000 0.20000
9 0.70000 0.30000
10 0.60000 0.40000
11 0.99999 0.00001
;
set S:=
1 2 3 4 5 6 7 8 9 10 11 12 13 14 15 16 17 18 19 ;

set C:=
1 2 3 4 5 6 7 8 9 10 11 12 13 14 15 16 17 18 19 20 21 ;

set A:=
1_1 1_2 2_1 2_2 2_3 3_1 3_2 4_1 4_2 5_1 5_2 5_3 6_1 6_2 6_3 7_1 7_2 7_3 8_1 8_2 9_1 9_2 9_3 10_1 10_2 10_3 11_1 11_2 11_3 12_1 12_2 13_1 13_2 14_1 14_2 15_1 15_2 15_3 16_1 16_2 16_3 17_1 17_2 17_3 18_1 18_2 19_1 19_2 20_1 20_2 21_1 21_2 ;

set T:=
1_1_2 1_3_4 1_5_6 1_7_8 1_9_10 
2_1_2 2_3_4 2_5_6 2_7_8 2_9_10 
3_1_2 3_3_4 3_5_6 3_7_8 3_9_10 
4_1_2 4_3_4 4_5_6 4_7_8 4_9_10 
5_1_2 5_3_4 5_5_6 5_7_8 5_9_10 
;

set R:=
1 2 3 4 5 6 7 ;

set Ac[1]:=
1_1 1_2 ;
set Ac[2]:=
2_1 2_2 2_3 ;
set Ac[3]:=
3_1 3_2 ;
set Ac[4]:=
4_1 4_2 ;
set Ac[5]:=
5_1 5_2 5_3 ;
set Ac[6]:=
6_1 6_2 6_3 ;
set Ac[7]:=
7_1 7_2 7_3 ;
set Ac[8]:=
8_1 8_2 ;
set Ac[9]:=
9_1 9_2 9_3 ;
set Ac[10]:=
10_1 10_2 10_3 ;
set Ac[11]:=
11_1 11_2 11_3 ;
set Ac[12]:=
12_1 12_2 ;
set Ac[13]:=
13_1 13_2 ;
set Ac[14]:=
14_1 14_2 ;
set Ac[15]:=
15_1 15_2 15_3 ;
set Ac[16]:=
16_1 16_2 16_3 ;
set Ac[17]:=
17_1 17_2 17_3 ;
set Ac[18]:=
18_1 18_2 ;
set Ac[19]:=
19_1 19_2 ;
set Ac[20]:=
20_1 20_2 ;
set Ac[21]:=
21_1 21_2 ;

set Cs[1]:=
5 6 9 18 19 ;
set Cs[2]:=
1 8 11 12 15 18 ;
set Cs[3]:=
6 7 9 11 19 ;
set Cs[4]:=
1 2 5 12 13 ;
set Cs[5]:=
4 7 8 18 19 20 ;
set Cs[6]:=
1 3 6 ;
set Cs[7]:=
1 12 16 17 20 ;
set Cs[8]:=
1 5 9 17 20 21 ;
set Cs[9]:=
3 7 9 11 21 ;
set Cs[10]:=
4 9 10 11 15 21 ;
set Cs[11]:=
4 8 16 20 21 ;
set Cs[12]:=
5 7 13 15 19 20 ;
set Cs[13]:=
7 15 20 ;
set Cs[14]:=
6 10 13 14 ;
set Cs[15]:=
2 12 13 17 18 ;
set Cs[16]:=
1 4 10 11 15 21 ;
set Cs[17]:=
1 3 7 14 15 18 ;
set Cs[18]:=
8 11 21 ;
set Cs[19]:=
3 4 9 14 17 ;

set Ts[1]:=
1_3_4 1_5_6 2_3_4 2_7_8 2_9_10 3_7_8 5_3_4 ;
set Ts[2]:=
2_5_6 2_7_8 4_1_2 ;
set Ts[3]:=
1_9_10 2_9_10 4_9_10 5_5_6 ;
set Ts[4]:=
1_1_2 1_9_10 2_1_2 3_1_2 3_3_4 5_3_4 5_5_6 ;
set Ts[5]:=
1_9_10 2_7_8 2_9_10 3_5_6 4_5_6 5_3_4 ;
set Ts[6]:=
1_3_4 2_3_4 3_1_2 3_7_8 4_1_2 4_9_10 ;
set Ts[7]:=
3_3_4 4_3_4 5_3_4 ;
set Ts[8]:=
1_1_2 2_1_2 2_7_8 3_9_10 ;
set Ts[9]:=
1_1_2 1_5_6 3_5_6 3_9_10 4_3_4 5_5_6 ;
set Ts[10]:=
1_3_4 2_3_4 3_5_6 4_1_2 ;
set Ts[11]:=
2_5_6 2_9_10 3_1_2 4_1_2 5_7_8 5_9_10 ;
set Ts[12]:=
1_5_6 2_1_2 2_5_6 5_5_6 ;
set Ts[13]:=
3_7_8 4_3_4 4_9_10 ;
set Ts[14]:=
1_7_8 2_7_8 3_3_4 3_9_10 4_7_8 5_3_4 5_7_8 ;
set Ts[15]:=
1_3_4 3_5_6 3_7_8 5_7_8 ;
set Ts[16]:=
2_3_4 3_1_2 3_7_8 ;
set Ts[17]:=
1_5_6 2_3_4 4_5_6 ;
set Ts[18]:=
1_5_6 1_7_8 4_1_2 4_5_6 ;
set Ts[19]:=
1_5_6 3_5_6 3_9_10 ;

param rho:=
1 100
2 100
3 100
4 100
5 100
6 100
7 100
;

param sigma_class:=
1 100
2 100
3 100
4 100
5 100
6 100
7 100
8 100
9 100
10 100
11 100
12 100
13 100
14 100
15 100
16 100
17 100
18 100
19 100
20 100
21 100
;

param kmin:=
1 2
2 3
3 2
4 2
5 3
6 1
7 2
8 3
9 2
10 3
11 2
12 3
13 1
14 2
15 2
16 3
17 3
18 1
19 2
;

param kmax:=
1 5
2 6
3 5
4 5
5 6
6 3
7 5
8 6
9 5
10 6
11 5
12 6
13 3
14 4
15 5
16 6
17 6
18 3
19 5
;

